20 1 6
708 783 73 616 410 391 542 800 125 964 885 39 563 495 115 271 887 771 582 349 
437 870 276 209 441 887 642 993 530 707 313 589 841 385 204 250 775 745 49 251 
60 285 641 975 131 756 245 18 526 826 366 963 695 993 171 488 231 165 480 760 
871 792 700 711 528 255 312 654 999 360 904 411 996 545 737 479 652 981 496 177 
159 213 139 205 557 662 692 787 178 172 899 48 315 598 110 843 853 421 496 203 
132 752 965 479 648 701 957 299 34 804 475 192 16 966 396 572 979 440 711 156 
9630 6090 5550 2770 5580 6640 4710 4100 4360 3190 9650 9190 4220 9290 3970 690 9820 3540 7190 150 
55160
